
  22    4
  10   10   10   10

   0   0   0   0   0   7 2 3 4 5 6 8 12 
  10  10  10  10  10   2 9 7 
   3  10  10  10  10   3 20 15 11 
   6  10  10  10  10   3 15 13 10 
  10  10  10  10  10   2 21 7 
   3  10  10  10  10   4 20 18 15 13 
   5  10  10  10  10   2 20 11 
   7  10  10  10  10   6 21 20 19 18 17 14 
   2  10  10  10  10   3 21 18 13 
   5  10  10  10  10   5 20 19 18 17 14 
   9  10  10  10  10   2 18 13 
   4  10  10  10  10   4 20 18 17 14 
   4  10  10  10  10   3 19 17 14 
   7  10  10  10  10   1 16 
   7  10  10  10  10   1 21 
   6  10  10  10  10   1 22
  10  10  10  10  10   1 22
   4  10  10  10  10   1 22
   9  10  10  10  10   1 22
   4  10  10  10  10   1 22
   7  10  10  10  10   1 22
   0   0   0   0   0   0 
